sat
(:eliminated-applications 136
 :eliminated-vars         598
 :max-memory              21.45
 :memory                  19.64
 :nlsat-conflicts         2336
 :nlsat-decisions         2995
 :nlsat-learned-added     1839
 :nlsat-learned-deleted   1171
 :nlsat-propagations      23739
 :nlsat-restarts          6
 :nlsat-stages            5934
 :num-allocs              6343818
 :rlimit-count            648761
 :time                    1.33
 :total-time              1.34)
